db/data/6321443219507137904930245492536313223.z3.out
unsat
-------------------
1037.342821904
